p cnf 815 3018
1 -2 -3 0
2 -1 -3 0
-1 -2 3 0
2 1 3 0
-4 -3 0
2 -1 -5 0
1 -2 -5 0
5 -2 -1 0
5 2 1 0
-6 5 0
-7 5 0
-8 5 0
9 -10 -11 0
10 -9 -11 0
-9 -10 11 0
10 9 11 0
-4 -11 0
10 -9 -12 0
9 -10 -12 0
12 -10 -9 0
12 10 9 0
-6 12 0
-7 12 0
-8 12 0
13 -14 -15 0
14 -13 -15 0
-13 -14 15 0
14 13 15 0
-4 -15 0
14 -13 -16 0
13 -14 -16 0
16 -14 -13 0
16 14 13 0
-6 16 0
-7 16 0
-8 16 0
17 -18 -19 0
18 -17 -19 0
-17 -18 19 0
18 17 19 0
-4 -19 0
18 -17 -20 0
17 -18 -20 0
20 -18 -17 0
20 18 17 0
-6 20 0
-7 20 0
-8 20 0
21 -22 -23 0
22 -21 -23 0
-21 -22 23 0
22 21 23 0
-4 -23 0
22 -21 -24 0
21 -22 -24 0
24 -22 -21 0
24 22 21 0
-6 24 0
-7 24 0
-8 24 0
25 -26 -27 0
26 -25 -27 0
-25 -26 27 0
26 25 27 0
-4 -27 0
26 -25 -28 0
25 -26 -28 0
28 -26 -25 0
28 26 25 0
-6 28 0
-7 28 0
-8 28 0
29 -30 -31 0
30 -29 -31 0
-29 -30 31 0
30 29 31 0
-4 -31 0
30 -29 -32 0
29 -30 -32 0
32 -30 -29 0
32 30 29 0
-6 32 0
-7 32 0
-8 32 0
33 -34 -35 0
34 -33 -35 0
-33 -34 35 0
34 33 35 0
-4 -35 0
34 -33 -36 0
33 -34 -36 0
36 -34 -33 0
36 34 33 0
-6 36 0
-7 36 0
-8 36 0
37 -38 -39 0
38 -37 -39 0
-37 -38 39 0
38 37 39 0
-4 -39 0
38 -37 -40 0
37 -38 -40 0
40 -38 -37 0
40 38 37 0
-6 40 0
-7 40 0
-8 40 0
41 -42 -43 0
42 -41 -43 0
-41 -42 43 0
42 41 43 0
-4 -43 0
42 -41 -44 0
41 -42 -44 0
44 -42 -41 0
44 42 41 0
-6 44 0
-7 44 0
-8 44 0
45 -46 -47 0
46 -45 -47 0
-45 -46 47 0
46 45 47 0
-4 -47 0
46 -48 -49 0
48 -46 -49 0
49 -46 -48 0
49 46 48 0
-6 49 0
-45 50 0
-48 50 0
-51 50 0
-52 50 0
-53 50 0
-54 50 0
-55 50 0
-56 50 0
-57 50 0
58 0
46 -50 -59 0
-46 50 -59 0
-46 -50 59 0
46 50 59 0
-7 59 0
45 60 0
48 60 0
51 60 0
52 60 0
53 60 0
54 60 0
55 60 0
56 60 0
57 60 0
-61 0
-46 60 -62 0
46 -60 -62 0
62 -60 -46 0
46 60 62 0
-8 -62 0
48 -63 -64 0
63 -48 -64 0
-48 -63 64 0
48 63 64 0
-4 -64 0
63 -51 -65 0
51 -63 -65 0
65 -63 -51 0
65 63 51 0
-6 65 0
-48 66 0
-51 66 0
-52 66 0
-53 66 0
-54 66 0
-55 66 0
-56 66 0
-57 66 0
67 0
63 -66 -68 0
-63 66 -68 0
-63 -66 68 0
63 66 68 0
-7 68 0
48 69 0
51 69 0
52 69 0
53 69 0
54 69 0
55 69 0
56 69 0
57 69 0
-70 0
-63 69 -71 0
63 -69 -71 0
71 -69 -63 0
63 69 71 0
-8 -71 0
51 -72 -73 0
72 -51 -73 0
-51 -72 73 0
51 72 73 0
-4 -73 0
72 -52 -74 0
52 -72 -74 0
74 -72 -52 0
74 72 52 0
-6 74 0
-51 75 0
-52 75 0
-53 75 0
-54 75 0
-55 75 0
-56 75 0
-57 75 0
76 0
72 -75 -77 0
-72 75 -77 0
-72 -75 77 0
72 75 77 0
-7 77 0
51 78 0
52 78 0
53 78 0
54 78 0
55 78 0
56 78 0
57 78 0
-79 0
-72 78 -80 0
72 -78 -80 0
80 -78 -72 0
72 78 80 0
-8 -80 0
52 -81 -82 0
81 -52 -82 0
-52 -81 82 0
52 81 82 0
-4 -82 0
81 -53 -83 0
53 -81 -83 0
83 -81 -53 0
83 81 53 0
-6 83 0
-52 84 0
-53 84 0
-54 84 0
-55 84 0
-56 84 0
-57 84 0
85 0
81 -84 -86 0
-81 84 -86 0
-81 -84 86 0
81 84 86 0
-7 86 0
52 87 0
53 87 0
54 87 0
55 87 0
56 87 0
57 87 0
-88 0
-81 87 -89 0
81 -87 -89 0
89 -87 -81 0
81 87 89 0
-8 -89 0
53 -90 -91 0
90 -53 -91 0
-53 -90 91 0
53 90 91 0
-4 -91 0
90 -54 -92 0
54 -90 -92 0
92 -90 -54 0
92 90 54 0
-6 92 0
-53 93 0
-54 93 0
-55 93 0
-56 93 0
-57 93 0
94 0
90 -93 -95 0
-90 93 -95 0
-90 -93 95 0
90 93 95 0
-7 95 0
53 96 0
54 96 0
55 96 0
56 96 0
57 96 0
-97 0
-90 96 -98 0
90 -96 -98 0
98 -96 -90 0
90 96 98 0
-8 -98 0
54 -99 -100 0
99 -54 -100 0
-54 -99 100 0
54 99 100 0
-4 -100 0
99 -55 -101 0
55 -99 -101 0
101 -99 -55 0
101 99 55 0
-6 101 0
99 -93 -102 0
93 -99 -102 0
-93 -99 102 0
99 93 102 0
-7 102 0
96 -99 -103 0
99 -96 -103 0
103 -96 -99 0
99 96 103 0
-8 -103 0
55 -104 -105 0
104 -55 -105 0
-55 -104 105 0
55 104 105 0
-4 -105 0
104 -56 -106 0
56 -104 -106 0
106 -104 -56 0
106 104 56 0
-6 106 0
104 -93 -107 0
93 -104 -107 0
-93 -104 107 0
104 93 107 0
-7 107 0
96 -104 -108 0
104 -96 -108 0
108 -96 -104 0
104 96 108 0
-8 -108 0
56 -109 -110 0
109 -56 -110 0
-56 -109 110 0
56 109 110 0
-4 -110 0
109 -57 -111 0
57 -109 -111 0
111 -109 -57 0
111 109 57 0
-6 111 0
109 -93 -112 0
93 -109 -112 0
-93 -109 112 0
109 93 112 0
-7 112 0
96 -109 -113 0
109 -96 -113 0
113 -96 -109 0
109 96 113 0
-8 -113 0
57 -114 -115 0
114 -57 -115 0
-57 -114 115 0
57 114 115 0
-4 -115 0
-53 114 -116 0
53 -114 -116 0
116 -114 -53 0
116 114 53 0
-6 116 0
114 -93 -117 0
93 -114 -117 0
-93 -114 117 0
114 93 117 0
-7 117 0
96 -114 -118 0
114 -96 -118 0
118 -96 -114 0
114 96 118 0
-8 -118 0
119 -120 -121 0
120 -119 -121 0
-119 -120 121 0
120 119 121 0
-4 -121 0
120 -122 -123 0
122 -120 -123 0
123 -120 -122 0
123 120 122 0
-6 123 0
-119 124 0
-122 124 0
-125 124 0
-126 124 0
-127 124 0
-128 124 0
-129 124 0
-130 124 0
-131 124 0
-132 124 0
133 0
120 -124 -134 0
-120 124 -134 0
-120 -124 134 0
120 124 134 0
-7 134 0
119 135 0
122 135 0
125 135 0
126 135 0
127 135 0
128 135 0
129 135 0
130 135 0
131 135 0
132 135 0
-136 0
-120 135 -137 0
120 -135 -137 0
137 -135 -120 0
120 135 137 0
-8 -137 0
122 -138 -139 0
138 -122 -139 0
-122 -138 139 0
122 138 139 0
-4 -139 0
138 -125 -140 0
125 -138 -140 0
140 -138 -125 0
140 138 125 0
-6 140 0
-122 141 0
-125 141 0
-126 141 0
-127 141 0
-128 141 0
-129 141 0
-130 141 0
-131 141 0
-132 141 0
142 0
138 -141 -143 0
-138 141 -143 0
-138 -141 143 0
138 141 143 0
-7 143 0
122 144 0
125 144 0
126 144 0
127 144 0
128 144 0
129 144 0
130 144 0
131 144 0
132 144 0
-145 0
-138 144 -146 0
138 -144 -146 0
146 -144 -138 0
138 144 146 0
-8 -146 0
125 -147 -148 0
147 -125 -148 0
-125 -147 148 0
125 147 148 0
-4 -148 0
147 -126 -149 0
126 -147 -149 0
149 -147 -126 0
149 147 126 0
-6 149 0
-125 150 0
-126 150 0
-127 150 0
-128 150 0
-129 150 0
-130 150 0
-131 150 0
-132 150 0
151 0
147 -150 -152 0
-147 150 -152 0
-147 -150 152 0
147 150 152 0
-7 152 0
125 153 0
126 153 0
127 153 0
128 153 0
129 153 0
130 153 0
131 153 0
132 153 0
-154 0
-147 153 -155 0
147 -153 -155 0
155 -153 -147 0
147 153 155 0
-8 -155 0
126 -156 -157 0
156 -126 -157 0
-126 -156 157 0
126 156 157 0
-4 -157 0
156 -127 -158 0
127 -156 -158 0
158 -156 -127 0
158 156 127 0
-6 158 0
-126 159 0
-127 159 0
-128 159 0
-129 159 0
-130 159 0
-131 159 0
-132 159 0
160 0
156 -159 -161 0
-156 159 -161 0
-156 -159 161 0
156 159 161 0
-7 161 0
126 162 0
127 162 0
128 162 0
129 162 0
130 162 0
131 162 0
132 162 0
-163 0
-156 162 -164 0
156 -162 -164 0
164 -162 -156 0
156 162 164 0
-8 -164 0
127 -165 -166 0
165 -127 -166 0
-127 -165 166 0
127 165 166 0
-4 -166 0
165 -128 -167 0
128 -165 -167 0
167 -165 -128 0
167 165 128 0
-6 167 0
-127 168 0
-128 168 0
-129 168 0
-130 168 0
-131 168 0
-132 168 0
169 0
165 -168 -170 0
-165 168 -170 0
-165 -168 170 0
165 168 170 0
-7 170 0
127 171 0
128 171 0
129 171 0
130 171 0
131 171 0
132 171 0
-172 0
-165 171 -173 0
165 -171 -173 0
173 -171 -165 0
165 171 173 0
-8 -173 0
128 -174 -175 0
174 -128 -175 0
-128 -174 175 0
128 174 175 0
-4 -175 0
174 -129 -176 0
129 -174 -176 0
176 -174 -129 0
176 174 129 0
-6 176 0
-128 177 0
-129 177 0
-130 177 0
-131 177 0
-132 177 0
178 0
174 -177 -179 0
-174 177 -179 0
-174 -177 179 0
174 177 179 0
-7 179 0
128 180 0
129 180 0
130 180 0
131 180 0
132 180 0
-181 0
-174 180 -182 0
174 -180 -182 0
182 -180 -174 0
174 180 182 0
-8 -182 0
129 -183 -184 0
183 -129 -184 0
-129 -183 184 0
129 183 184 0
-4 -184 0
183 -130 -185 0
130 -183 -185 0
185 -183 -130 0
185 183 130 0
-6 185 0
-129 186 0
-130 186 0
-131 186 0
-132 186 0
129 130 131 132 -186 0
183 -186 -187 0
-183 186 -187 0
-183 -186 187 0
183 186 187 0
-7 187 0
129 188 0
130 188 0
131 188 0
132 188 0
-189 0
-183 188 -190 0
183 -188 -190 0
190 -188 -183 0
183 188 190 0
-8 -190 0
130 -191 -192 0
191 -130 -192 0
-130 -191 192 0
130 191 192 0
-4 -192 0
191 -131 -193 0
131 -191 -193 0
193 -191 -131 0
193 191 131 0
-6 193 0
191 -186 -194 0
186 -191 -194 0
-186 -191 194 0
191 186 194 0
-7 194 0
188 -191 -195 0
191 -188 -195 0
195 -188 -191 0
191 188 195 0
-8 -195 0
131 -196 -197 0
196 -131 -197 0
-131 -196 197 0
131 196 197 0
-4 -197 0
196 -132 -198 0
132 -196 -198 0
198 -196 -132 0
198 196 132 0
-6 198 0
196 -186 -199 0
186 -196 -199 0
-186 -196 199 0
196 186 199 0
-7 199 0
188 -196 -200 0
196 -188 -200 0
200 -188 -196 0
196 188 200 0
-8 -200 0
132 -201 -202 0
201 -132 -202 0
-132 -201 202 0
132 201 202 0
-4 -202 0
-129 201 -203 0
129 -201 -203 0
203 -201 -129 0
203 201 129 0
-6 203 0
201 -186 -204 0
186 -201 -204 0
-186 -201 204 0
201 186 204 0
-7 204 0
188 -201 -205 0
201 -188 -205 0
205 -188 -201 0
201 188 205 0
-8 -205 0
206 -207 -208 0
207 -206 -208 0
-206 -207 208 0
207 206 208 0
-4 -208 0
207 -209 -210 0
209 -207 -210 0
210 -207 -209 0
210 207 209 0
-6 210 0
-206 211 0
-209 211 0
-212 211 0
-213 211 0
-214 211 0
-215 211 0
-216 211 0
-217 211 0
-218 211 0
-219 211 0
-220 211 0
221 0
207 -211 -222 0
-207 211 -222 0
-207 -211 222 0
207 211 222 0
-7 222 0
206 223 0
209 223 0
212 223 0
213 223 0
214 223 0
215 223 0
216 223 0
217 223 0
218 223 0
219 223 0
220 223 0
-224 0
-207 223 -225 0
207 -223 -225 0
225 -223 -207 0
207 223 225 0
-8 -225 0
209 -226 -227 0
226 -209 -227 0
-209 -226 227 0
209 226 227 0
-4 -227 0
226 -212 -228 0
212 -226 -228 0
228 -226 -212 0
228 226 212 0
-6 228 0
-209 229 0
-212 229 0
-213 229 0
-214 229 0
-215 229 0
-216 229 0
-217 229 0
-218 229 0
-219 229 0
-220 229 0
230 0
226 -229 -231 0
-226 229 -231 0
-226 -229 231 0
226 229 231 0
-7 231 0
209 232 0
212 232 0
213 232 0
214 232 0
215 232 0
216 232 0
217 232 0
218 232 0
219 232 0
220 232 0
-233 0
-226 232 -234 0
226 -232 -234 0
234 -232 -226 0
226 232 234 0
-8 -234 0
212 -235 -236 0
235 -212 -236 0
-212 -235 236 0
212 235 236 0
-4 -236 0
235 -213 -237 0
213 -235 -237 0
237 -235 -213 0
237 235 213 0
-6 237 0
-212 238 0
-213 238 0
-214 238 0
-215 238 0
-216 238 0
-217 238 0
-218 238 0
-219 238 0
-220 238 0
239 0
235 -238 -240 0
-235 238 -240 0
-235 -238 240 0
235 238 240 0
-7 240 0
212 241 0
213 241 0
214 241 0
215 241 0
216 241 0
217 241 0
218 241 0
219 241 0
220 241 0
-242 0
-235 241 -243 0
235 -241 -243 0
243 -241 -235 0
235 241 243 0
-8 -243 0
213 -244 -245 0
244 -213 -245 0
-213 -244 245 0
213 244 245 0
-4 -245 0
244 -214 -246 0
214 -244 -246 0
246 -244 -214 0
246 244 214 0
-6 246 0
-213 247 0
-214 247 0
-215 247 0
-216 247 0
-217 247 0
-218 247 0
-219 247 0
-220 247 0
248 0
244 -247 -249 0
-244 247 -249 0
-244 -247 249 0
244 247 249 0
-7 249 0
213 250 0
214 250 0
215 250 0
216 250 0
217 250 0
218 250 0
219 250 0
220 250 0
-251 0
-244 250 -252 0
244 -250 -252 0
252 -250 -244 0
244 250 252 0
-8 -252 0
214 -253 -254 0
253 -214 -254 0
-214 -253 254 0
214 253 254 0
-4 -254 0
253 -215 -255 0
215 -253 -255 0
255 -253 -215 0
255 253 215 0
-6 255 0
-214 256 0
-215 256 0
-216 256 0
-217 256 0
-218 256 0
-219 256 0
-220 256 0
257 0
253 -256 -258 0
-253 256 -258 0
-253 -256 258 0
253 256 258 0
-7 258 0
214 259 0
215 259 0
216 259 0
217 259 0
218 259 0
219 259 0
220 259 0
-260 0
-253 259 -261 0
253 -259 -261 0
261 -259 -253 0
253 259 261 0
-8 -261 0
215 -262 -263 0
262 -215 -263 0
-215 -262 263 0
215 262 263 0
-4 -263 0
262 -216 -264 0
216 -262 -264 0
264 -262 -216 0
264 262 216 0
-6 264 0
-215 265 0
-216 265 0
-217 265 0
-218 265 0
-219 265 0
-220 265 0
266 0
262 -265 -267 0
-262 265 -267 0
-262 -265 267 0
262 265 267 0
-7 267 0
215 268 0
216 268 0
217 268 0
218 268 0
219 268 0
220 268 0
-269 0
-262 268 -270 0
262 -268 -270 0
270 -268 -262 0
262 268 270 0
-8 -270 0
216 -271 -272 0
271 -216 -272 0
-216 -271 272 0
216 271 272 0
-4 -272 0
271 -217 -273 0
217 -271 -273 0
273 -271 -217 0
273 271 217 0
-6 273 0
271 -265 -274 0
265 -271 -274 0
-265 -271 274 0
271 265 274 0
-7 274 0
268 -271 -275 0
271 -268 -275 0
275 -268 -271 0
271 268 275 0
-8 -275 0
217 -276 -277 0
276 -217 -277 0
-217 -276 277 0
217 276 277 0
-4 -277 0
276 -218 -278 0
218 -276 -278 0
278 -276 -218 0
278 276 218 0
-6 278 0
276 -265 -279 0
265 -276 -279 0
-265 -276 279 0
276 265 279 0
-7 279 0
268 -276 -280 0
276 -268 -280 0
280 -268 -276 0
276 268 280 0
-8 -280 0
218 -281 -282 0
281 -218 -282 0
-218 -281 282 0
218 281 282 0
-4 -282 0
281 -219 -283 0
219 -281 -283 0
283 -281 -219 0
283 281 219 0
-6 283 0
281 -265 -284 0
265 -281 -284 0
-265 -281 284 0
281 265 284 0
-7 284 0
268 -281 -285 0
281 -268 -285 0
285 -268 -281 0
281 268 285 0
-8 -285 0
219 -286 -287 0
286 -219 -287 0
-219 -286 287 0
219 286 287 0
-4 -287 0
286 -220 -288 0
220 -286 -288 0
288 -286 -220 0
288 286 220 0
-6 288 0
286 -265 -289 0
265 -286 -289 0
-265 -286 289 0
286 265 289 0
-7 289 0
268 -286 -290 0
286 -268 -290 0
290 -268 -286 0
286 268 290 0
-8 -290 0
220 -291 -292 0
291 -220 -292 0
-220 -291 292 0
220 291 292 0
-4 -292 0
-215 291 -293 0
215 -291 -293 0
293 -291 -215 0
293 291 215 0
-6 293 0
291 -265 -294 0
265 -291 -294 0
-265 -291 294 0
291 265 294 0
-7 294 0
268 -291 -295 0
291 -268 -295 0
295 -268 -291 0
291 268 295 0
-8 -295 0
296 -297 -298 0
297 -296 -298 0
-296 -297 298 0
297 296 298 0
-4 -298 0
297 -299 -300 0
299 -297 -300 0
300 -297 -299 0
300 297 299 0
-6 300 0
-296 301 0
-299 301 0
-302 301 0
-303 301 0
-304 301 0
-305 301 0
-306 301 0
-307 301 0
-308 301 0
309 0
297 -301 -310 0
-297 301 -310 0
-297 -301 310 0
297 301 310 0
-7 310 0
296 311 0
299 311 0
302 311 0
303 311 0
304 311 0
305 311 0
306 311 0
307 311 0
308 311 0
-312 0
-297 311 -313 0
297 -311 -313 0
313 -311 -297 0
297 311 313 0
-8 -313 0
299 -314 -315 0
314 -299 -315 0
-299 -314 315 0
299 314 315 0
-4 -315 0
314 -302 -316 0
302 -314 -316 0
316 -314 -302 0
316 314 302 0
-6 316 0
-299 317 0
-302 317 0
-303 317 0
-304 317 0
-305 317 0
-306 317 0
-307 317 0
-308 317 0
318 0
314 -317 -319 0
-314 317 -319 0
-314 -317 319 0
314 317 319 0
-7 319 0
299 320 0
302 320 0
303 320 0
304 320 0
305 320 0
306 320 0
307 320 0
308 320 0
-321 0
-314 320 -322 0
314 -320 -322 0
322 -320 -314 0
314 320 322 0
-8 -322 0
302 -323 -324 0
323 -302 -324 0
-302 -323 324 0
302 323 324 0
-4 -324 0
323 -303 -325 0
303 -323 -325 0
325 -323 -303 0
325 323 303 0
-6 325 0
-302 326 0
-303 326 0
-304 326 0
-305 326 0
-306 326 0
-307 326 0
-308 326 0
327 0
323 -326 -328 0
-323 326 -328 0
-323 -326 328 0
323 326 328 0
-7 328 0
302 329 0
303 329 0
304 329 0
305 329 0
306 329 0
307 329 0
308 329 0
-330 0
-323 329 -331 0
323 -329 -331 0
331 -329 -323 0
323 329 331 0
-8 -331 0
303 -332 -333 0
332 -303 -333 0
-303 -332 333 0
303 332 333 0
-4 -333 0
332 -304 -334 0
304 -332 -334 0
334 -332 -304 0
334 332 304 0
-6 334 0
-303 335 0
-304 335 0
-305 335 0
-306 335 0
-307 335 0
-308 335 0
336 0
332 -335 -337 0
-332 335 -337 0
-332 -335 337 0
332 335 337 0
-7 337 0
303 338 0
304 338 0
305 338 0
306 338 0
307 338 0
308 338 0
-339 0
-332 338 -340 0
332 -338 -340 0
340 -338 -332 0
332 338 340 0
-8 -340 0
304 -341 -342 0
341 -304 -342 0
-304 -341 342 0
304 341 342 0
-4 -342 0
341 -305 -343 0
305 -341 -343 0
343 -341 -305 0
343 341 305 0
-6 343 0
-304 344 0
-305 344 0
-306 344 0
-307 344 0
-308 344 0
345 0
341 -344 -346 0
-341 344 -346 0
-341 -344 346 0
341 344 346 0
-7 346 0
304 347 0
305 347 0
306 347 0
307 347 0
308 347 0
-348 0
-341 347 -349 0
341 -347 -349 0
349 -347 -341 0
341 347 349 0
-8 -349 0
305 -350 -351 0
350 -305 -351 0
-305 -350 351 0
305 350 351 0
-4 -351 0
350 -306 -352 0
306 -350 -352 0
352 -350 -306 0
352 350 306 0
-6 352 0
350 -344 -353 0
344 -350 -353 0
-344 -350 353 0
350 344 353 0
-7 353 0
347 -350 -354 0
350 -347 -354 0
354 -347 -350 0
350 347 354 0
-8 -354 0
306 -355 -356 0
355 -306 -356 0
-306 -355 356 0
306 355 356 0
-4 -356 0
355 -307 -357 0
307 -355 -357 0
357 -355 -307 0
357 355 307 0
-6 357 0
355 -344 -358 0
344 -355 -358 0
-344 -355 358 0
355 344 358 0
-7 358 0
347 -355 -359 0
355 -347 -359 0
359 -347 -355 0
355 347 359 0
-8 -359 0
307 -360 -361 0
360 -307 -361 0
-307 -360 361 0
307 360 361 0
-4 -361 0
360 -308 -362 0
308 -360 -362 0
362 -360 -308 0
362 360 308 0
-6 362 0
360 -344 -363 0
344 -360 -363 0
-344 -360 363 0
360 344 363 0
-7 363 0
347 -360 -364 0
360 -347 -364 0
364 -347 -360 0
360 347 364 0
-8 -364 0
308 -365 -366 0
365 -308 -366 0
-308 -365 366 0
308 365 366 0
-4 -366 0
-304 365 -367 0
304 -365 -367 0
367 -365 -304 0
367 365 304 0
-6 367 0
365 -344 -368 0
344 -365 -368 0
-344 -365 368 0
365 344 368 0
-7 368 0
347 -365 -369 0
365 -347 -369 0
369 -347 -365 0
365 347 369 0
-8 -369 0
370 -371 -372 0
371 -370 -372 0
-370 -371 372 0
371 370 372 0
-4 -372 0
371 -373 -374 0
373 -371 -374 0
374 -371 -373 0
374 371 373 0
-6 374 0
-370 375 0
-373 375 0
-376 375 0
-377 375 0
-378 375 0
-379 375 0
380 0
371 -375 -381 0
-371 375 -381 0
-371 -375 381 0
371 375 381 0
-7 381 0
370 382 0
373 382 0
376 382 0
377 382 0
378 382 0
379 382 0
-383 0
-371 382 -384 0
371 -382 -384 0
384 -382 -371 0
371 382 384 0
-8 -384 0
373 -385 -386 0
385 -373 -386 0
-373 -385 386 0
373 385 386 0
-4 -386 0
385 -376 -387 0
376 -385 -387 0
387 -385 -376 0
387 385 376 0
-6 387 0
-373 388 0
-376 388 0
-377 388 0
-378 388 0
-379 388 0
389 0
385 -388 -390 0
-385 388 -390 0
-385 -388 390 0
385 388 390 0
-7 390 0
373 391 0
376 391 0
377 391 0
378 391 0
379 391 0
-392 0
-385 391 -393 0
385 -391 -393 0
393 -391 -385 0
385 391 393 0
-8 -393 0
376 -394 -395 0
394 -376 -395 0
-376 -394 395 0
376 394 395 0
-4 -395 0
394 -377 -396 0
377 -394 -396 0
396 -394 -377 0
396 394 377 0
-6 396 0
394 -388 -397 0
388 -394 -397 0
-388 -394 397 0
394 388 397 0
-7 397 0
391 -394 -398 0
394 -391 -398 0
398 -391 -394 0
394 391 398 0
-8 -398 0
377 -399 -400 0
399 -377 -400 0
-377 -399 400 0
377 399 400 0
-4 -400 0
399 -378 -401 0
378 -399 -401 0
401 -399 -378 0
401 399 378 0
-6 401 0
399 -388 -402 0
388 -399 -402 0
-388 -399 402 0
399 388 402 0
-7 402 0
391 -399 -403 0
399 -391 -403 0
403 -391 -399 0
399 391 403 0
-8 -403 0
378 -404 -405 0
404 -378 -405 0
-378 -404 405 0
378 404 405 0
-4 -405 0
404 -379 -406 0
379 -404 -406 0
406 -404 -379 0
406 404 379 0
-6 406 0
404 -388 -407 0
388 -404 -407 0
-388 -404 407 0
404 388 407 0
-7 407 0
391 -404 -408 0
404 -391 -408 0
408 -391 -404 0
404 391 408 0
-8 -408 0
379 -409 -410 0
409 -379 -410 0
-379 -409 410 0
379 409 410 0
-4 -410 0
-373 409 -411 0
373 -409 -411 0
411 -409 -373 0
411 409 373 0
-6 411 0
409 -388 -412 0
388 -409 -412 0
-388 -409 412 0
409 388 412 0
-7 412 0
391 -409 -413 0
409 -391 -413 0
413 -391 -409 0
409 391 413 0
-8 -413 0
414 -415 -416 0
415 -414 -416 0
-414 -415 416 0
415 414 416 0
-4 -416 0
415 -417 -418 0
417 -415 -418 0
418 -415 -417 0
418 415 417 0
-6 418 0
-414 419 0
-417 419 0
-420 419 0
-421 419 0
-422 419 0
-423 419 0
-424 419 0
-425 419 0
-426 419 0
-427 419 0
-428 419 0
-429 419 0
430 0
415 -419 -431 0
-415 419 -431 0
-415 -419 431 0
415 419 431 0
-7 431 0
414 432 0
417 432 0
420 432 0
421 432 0
422 432 0
423 432 0
424 432 0
425 432 0
426 432 0
427 432 0
428 432 0
429 432 0
-433 0
-415 432 -434 0
415 -432 -434 0
434 -432 -415 0
415 432 434 0
-8 -434 0
417 -435 -436 0
435 -417 -436 0
-417 -435 436 0
417 435 436 0
-4 -436 0
435 -420 -437 0
420 -435 -437 0
437 -435 -420 0
437 435 420 0
-6 437 0
-417 438 0
-420 438 0
-421 438 0
-422 438 0
-423 438 0
-424 438 0
-425 438 0
-426 438 0
-427 438 0
-428 438 0
-429 438 0
439 0
435 -438 -440 0
-435 438 -440 0
-435 -438 440 0
435 438 440 0
-7 440 0
417 441 0
420 441 0
421 441 0
422 441 0
423 441 0
424 441 0
425 441 0
426 441 0
427 441 0
428 441 0
429 441 0
-442 0
-435 441 -443 0
435 -441 -443 0
443 -441 -435 0
435 441 443 0
-8 -443 0
420 -444 -445 0
444 -420 -445 0
-420 -444 445 0
420 444 445 0
-4 -445 0
444 -421 -446 0
421 -444 -446 0
446 -444 -421 0
446 444 421 0
-6 446 0
-420 447 0
-421 447 0
-422 447 0
-423 447 0
-424 447 0
-425 447 0
-426 447 0
-427 447 0
-428 447 0
-429 447 0
448 0
444 -447 -449 0
-444 447 -449 0
-444 -447 449 0
444 447 449 0
-7 449 0
420 450 0
421 450 0
422 450 0
423 450 0
424 450 0
425 450 0
426 450 0
427 450 0
428 450 0
429 450 0
-451 0
-444 450 -452 0
444 -450 -452 0
452 -450 -444 0
444 450 452 0
-8 -452 0
421 -453 -454 0
453 -421 -454 0
-421 -453 454 0
421 453 454 0
-4 -454 0
453 -422 -455 0
422 -453 -455 0
455 -453 -422 0
455 453 422 0
-6 455 0
-421 456 0
-422 456 0
-423 456 0
-424 456 0
-425 456 0
-426 456 0
-427 456 0
-428 456 0
-429 456 0
457 0
453 -456 -458 0
-453 456 -458 0
-453 -456 458 0
453 456 458 0
-7 458 0
421 459 0
422 459 0
423 459 0
424 459 0
425 459 0
426 459 0
427 459 0
428 459 0
429 459 0
-460 0
-453 459 -461 0
453 -459 -461 0
461 -459 -453 0
453 459 461 0
-8 -461 0
422 -462 -463 0
462 -422 -463 0
-422 -462 463 0
422 462 463 0
-4 -463 0
462 -423 -464 0
423 -462 -464 0
464 -462 -423 0
464 462 423 0
-6 464 0
-422 465 0
-423 465 0
-424 465 0
-425 465 0
-426 465 0
-427 465 0
-428 465 0
-429 465 0
466 0
462 -465 -467 0
-462 465 -467 0
-462 -465 467 0
462 465 467 0
-7 467 0
422 468 0
423 468 0
424 468 0
425 468 0
426 468 0
427 468 0
428 468 0
429 468 0
-469 0
-462 468 -470 0
462 -468 -470 0
470 -468 -462 0
462 468 470 0
-8 -470 0
423 -471 -472 0
471 -423 -472 0
-423 -471 472 0
423 471 472 0
-4 -472 0
471 -424 -473 0
424 -471 -473 0
473 -471 -424 0
473 471 424 0
-6 473 0
-423 474 0
-424 474 0
-425 474 0
-426 474 0
-427 474 0
-428 474 0
-429 474 0
475 0
471 -474 -476 0
-471 474 -476 0
-471 -474 476 0
471 474 476 0
-7 476 0
423 477 0
424 477 0
425 477 0
426 477 0
427 477 0
428 477 0
429 477 0
-478 0
-471 477 -479 0
471 -477 -479 0
479 -477 -471 0
471 477 479 0
-8 -479 0
424 -480 -481 0
480 -424 -481 0
-424 -480 481 0
424 480 481 0
-4 -481 0
480 -425 -482 0
425 -480 -482 0
482 -480 -425 0
482 480 425 0
-6 482 0
-424 483 0
-425 483 0
-426 483 0
-427 483 0
-428 483 0
-429 483 0
484 0
480 -483 -485 0
-480 483 -485 0
-480 -483 485 0
480 483 485 0
-7 485 0
424 486 0
425 486 0
426 486 0
427 486 0
428 486 0
429 486 0
-487 0
-480 486 -488 0
480 -486 -488 0
488 -486 -480 0
480 486 488 0
-8 -488 0
425 -489 -490 0
489 -425 -490 0
-425 -489 490 0
425 489 490 0
-4 -490 0
489 -426 -491 0
426 -489 -491 0
491 -489 -426 0
491 489 426 0
-6 491 0
489 -483 -492 0
483 -489 -492 0
-483 -489 492 0
489 483 492 0
-7 492 0
486 -489 -493 0
489 -486 -493 0
493 -486 -489 0
489 486 493 0
-8 -493 0
426 -494 -495 0
494 -426 -495 0
-426 -494 495 0
426 494 495 0
-4 -495 0
494 -427 -496 0
427 -494 -496 0
496 -494 -427 0
496 494 427 0
-6 496 0
494 -483 -497 0
483 -494 -497 0
-483 -494 497 0
494 483 497 0
-7 497 0
486 -494 -498 0
494 -486 -498 0
498 -486 -494 0
494 486 498 0
-8 -498 0
427 -499 -500 0
499 -427 -500 0
-427 -499 500 0
427 499 500 0
-4 -500 0
499 -428 -501 0
428 -499 -501 0
501 -499 -428 0
501 499 428 0
-6 501 0
499 -483 -502 0
483 -499 -502 0
-483 -499 502 0
499 483 502 0
-7 502 0
486 -499 -503 0
499 -486 -503 0
503 -486 -499 0
499 486 503 0
-8 -503 0
428 -504 -505 0
504 -428 -505 0
-428 -504 505 0
428 504 505 0
-4 -505 0
504 -429 -506 0
429 -504 -506 0
506 -504 -429 0
506 504 429 0
-6 506 0
504 -483 -507 0
483 -504 -507 0
-483 -504 507 0
504 483 507 0
-7 507 0
486 -504 -508 0
504 -486 -508 0
508 -486 -504 0
504 486 508 0
-8 -508 0
429 -509 -510 0
509 -429 -510 0
-429 -509 510 0
429 509 510 0
-4 -510 0
-424 509 -511 0
424 -509 -511 0
511 -509 -424 0
511 509 424 0
-6 511 0
509 -483 -512 0
483 -509 -512 0
-483 -509 512 0
509 483 512 0
-7 512 0
486 -509 -513 0
509 -486 -513 0
513 -486 -509 0
509 486 513 0
-8 -513 0
514 -515 -516 0
515 -514 -516 0
-514 -515 516 0
515 514 516 0
-4 -516 0
515 -517 -518 0
517 -515 -518 0
518 -515 -517 0
518 515 517 0
-6 518 0
-514 519 0
-517 519 0
-520 519 0
-521 519 0
-522 519 0
-523 519 0
-524 519 0
525 0
515 -519 -526 0
-515 519 -526 0
-515 -519 526 0
515 519 526 0
-7 526 0
514 527 0
517 527 0
520 527 0
521 527 0
522 527 0
523 527 0
524 527 0
-528 0
-515 527 -529 0
515 -527 -529 0
529 -527 -515 0
515 527 529 0
-8 -529 0
517 -530 -531 0
530 -517 -531 0
-517 -530 531 0
517 530 531 0
-4 -531 0
530 -520 -532 0
520 -530 -532 0
532 -530 -520 0
532 530 520 0
-6 532 0
-517 533 0
-520 533 0
-521 533 0
-522 533 0
-523 533 0
-524 533 0
534 0
530 -533 -535 0
-530 533 -535 0
-530 -533 535 0
530 533 535 0
-7 535 0
517 536 0
520 536 0
521 536 0
522 536 0
523 536 0
524 536 0
-537 0
-530 536 -538 0
530 -536 -538 0
538 -536 -530 0
530 536 538 0
-8 -538 0
520 -539 -540 0
539 -520 -540 0
-520 -539 540 0
520 539 540 0
-4 -540 0
539 -521 -541 0
521 -539 -541 0
541 -539 -521 0
541 539 521 0
-6 541 0
-520 542 0
-521 542 0
-522 542 0
-523 542 0
-524 542 0
543 0
539 -542 -544 0
-539 542 -544 0
-539 -542 544 0
539 542 544 0
-7 544 0
520 545 0
521 545 0
522 545 0
523 545 0
524 545 0
-546 0
-539 545 -547 0
539 -545 -547 0
547 -545 -539 0
539 545 547 0
-8 -547 0
521 -548 -549 0
548 -521 -549 0
-521 -548 549 0
521 548 549 0
-4 -549 0
548 -522 -550 0
522 -548 -550 0
550 -548 -522 0
550 548 522 0
-6 550 0
-521 551 0
-522 551 0
-523 551 0
-524 551 0
521 522 523 524 -551 0
548 -551 -552 0
-548 551 -552 0
-548 -551 552 0
548 551 552 0
-7 552 0
521 553 0
522 553 0
523 553 0
524 553 0
-554 0
-548 553 -555 0
548 -553 -555 0
555 -553 -548 0
548 553 555 0
-8 -555 0
522 -556 -557 0
556 -522 -557 0
-522 -556 557 0
522 556 557 0
-4 -557 0
556 -523 -558 0
523 -556 -558 0
558 -556 -523 0
558 556 523 0
-6 558 0
-522 559 0
-523 559 0
-524 559 0
522 523 524 -559 0
556 -559 -560 0
-556 559 -560 0
-556 -559 560 0
556 559 560 0
-7 560 0
522 561 0
523 561 0
524 561 0
-522 -523 -524 -561 0
-556 561 -562 0
556 -561 -562 0
562 -561 -556 0
556 561 562 0
-8 -562 0
523 -563 -564 0
563 -523 -564 0
-523 -563 564 0
523 563 564 0
-4 -564 0
563 -524 -565 0
524 -563 -565 0
565 -563 -524 0
565 563 524 0
-6 565 0
-523 566 0
-524 566 0
523 524 -566 0
563 -566 -567 0
-563 566 -567 0
-563 -566 567 0
563 566 567 0
-7 567 0
523 568 0
524 568 0
-523 -524 -568 0
-563 568 -569 0
563 -568 -569 0
569 -568 -563 0
563 568 569 0
-8 -569 0
524 -570 -571 0
570 -524 -571 0
-524 -570 571 0
524 570 571 0
-4 -571 0
-523 570 -572 0
523 -570 -572 0
572 -570 -523 0
572 570 523 0
-6 572 0
570 -566 -573 0
566 -570 -573 0
-566 -570 573 0
570 566 573 0
-7 573 0
568 -570 -574 0
570 -568 -574 0
574 -568 -570 0
570 568 574 0
-8 -574 0
575 -576 -577 0
576 -575 -577 0
-575 -576 577 0
576 575 577 0
-4 -577 0
576 -578 -579 0
578 -576 -579 0
579 -576 -578 0
579 576 578 0
-6 579 0
-575 580 0
-578 580 0
-581 580 0
-582 580 0
-583 580 0
-584 580 0
-585 580 0
-586 580 0
-587 580 0
-588 580 0
-589 580 0
-590 580 0
591 0
576 -580 -592 0
-576 580 -592 0
-576 -580 592 0
576 580 592 0
-7 592 0
575 593 0
578 593 0
581 593 0
582 593 0
583 593 0
584 593 0
585 593 0
586 593 0
587 593 0
588 593 0
589 593 0
590 593 0
-594 0
-576 593 -595 0
576 -593 -595 0
595 -593 -576 0
576 593 595 0
-8 -595 0
578 -596 -597 0
596 -578 -597 0
-578 -596 597 0
578 596 597 0
-4 -597 0
596 -581 -598 0
581 -596 -598 0
598 -596 -581 0
598 596 581 0
-6 598 0
-578 599 0
-581 599 0
-582 599 0
-583 599 0
-584 599 0
-585 599 0
-586 599 0
-587 599 0
-588 599 0
-589 599 0
-590 599 0
600 0
596 -599 -601 0
-596 599 -601 0
-596 -599 601 0
596 599 601 0
-7 601 0
578 602 0
581 602 0
582 602 0
583 602 0
584 602 0
585 602 0
586 602 0
587 602 0
588 602 0
589 602 0
590 602 0
-603 0
-596 602 -604 0
596 -602 -604 0
604 -602 -596 0
596 602 604 0
-8 -604 0
581 -605 -606 0
605 -581 -606 0
-581 -605 606 0
581 605 606 0
-4 -606 0
605 -582 -607 0
582 -605 -607 0
607 -605 -582 0
607 605 582 0
-6 607 0
-581 608 0
-582 608 0
-583 608 0
-584 608 0
-585 608 0
-586 608 0
-587 608 0
-588 608 0
-589 608 0
-590 608 0
609 0
605 -608 -610 0
-605 608 -610 0
-605 -608 610 0
605 608 610 0
-7 610 0
581 611 0
582 611 0
583 611 0
584 611 0
585 611 0
586 611 0
587 611 0
588 611 0
589 611 0
590 611 0
-612 0
-605 611 -613 0
605 -611 -613 0
613 -611 -605 0
605 611 613 0
-8 -613 0
582 -614 -615 0
614 -582 -615 0
-582 -614 615 0
582 614 615 0
-4 -615 0
614 -583 -616 0
583 -614 -616 0
616 -614 -583 0
616 614 583 0
-6 616 0
-582 617 0
-583 617 0
-584 617 0
-585 617 0
-586 617 0
-587 617 0
-588 617 0
-589 617 0
-590 617 0
618 0
614 -617 -619 0
-614 617 -619 0
-614 -617 619 0
614 617 619 0
-7 619 0
582 620 0
583 620 0
584 620 0
585 620 0
586 620 0
587 620 0
588 620 0
589 620 0
590 620 0
-621 0
-614 620 -622 0
614 -620 -622 0
622 -620 -614 0
614 620 622 0
-8 -622 0
583 -623 -624 0
623 -583 -624 0
-583 -623 624 0
583 623 624 0
-4 -624 0
623 -584 -625 0
584 -623 -625 0
625 -623 -584 0
625 623 584 0
-6 625 0
-583 626 0
-584 626 0
-585 626 0
-586 626 0
-587 626 0
-588 626 0
-589 626 0
-590 626 0
627 0
623 -626 -628 0
-623 626 -628 0
-623 -626 628 0
623 626 628 0
-7 628 0
583 629 0
584 629 0
585 629 0
586 629 0
587 629 0
588 629 0
589 629 0
590 629 0
-630 0
-623 629 -631 0
623 -629 -631 0
631 -629 -623 0
623 629 631 0
-8 -631 0
584 -632 -633 0
632 -584 -633 0
-584 -632 633 0
584 632 633 0
-4 -633 0
632 -585 -634 0
585 -632 -634 0
634 -632 -585 0
634 632 585 0
-6 634 0
-584 635 0
-585 635 0
-586 635 0
-587 635 0
-588 635 0
-589 635 0
-590 635 0
636 0
632 -635 -637 0
-632 635 -637 0
-632 -635 637 0
632 635 637 0
-7 637 0
584 638 0
585 638 0
586 638 0
587 638 0
588 638 0
589 638 0
590 638 0
-639 0
-632 638 -640 0
632 -638 -640 0
640 -638 -632 0
632 638 640 0
-8 -640 0
585 -641 -642 0
641 -585 -642 0
-585 -641 642 0
585 641 642 0
-4 -642 0
641 -586 -643 0
586 -641 -643 0
643 -641 -586 0
643 641 586 0
-6 643 0
-585 644 0
-586 644 0
-587 644 0
-588 644 0
-589 644 0
-590 644 0
645 0
641 -644 -646 0
-641 644 -646 0
-641 -644 646 0
641 644 646 0
-7 646 0
585 647 0
586 647 0
587 647 0
588 647 0
589 647 0
590 647 0
-648 0
-641 647 -649 0
641 -647 -649 0
649 -647 -641 0
641 647 649 0
-8 -649 0
586 -650 -651 0
650 -586 -651 0
-586 -650 651 0
586 650 651 0
-4 -651 0
650 -587 -652 0
587 -650 -652 0
652 -650 -587 0
652 650 587 0
-6 652 0
650 -644 -653 0
644 -650 -653 0
-644 -650 653 0
650 644 653 0
-7 653 0
647 -650 -654 0
650 -647 -654 0
654 -647 -650 0
650 647 654 0
-8 -654 0
587 -655 -656 0
655 -587 -656 0
-587 -655 656 0
587 655 656 0
-4 -656 0
655 -588 -657 0
588 -655 -657 0
657 -655 -588 0
657 655 588 0
-6 657 0
655 -644 -658 0
644 -655 -658 0
-644 -655 658 0
655 644 658 0
-7 658 0
647 -655 -659 0
655 -647 -659 0
659 -647 -655 0
655 647 659 0
-8 -659 0
588 -660 -661 0
660 -588 -661 0
-588 -660 661 0
588 660 661 0
-4 -661 0
660 -589 -662 0
589 -660 -662 0
662 -660 -589 0
662 660 589 0
-6 662 0
660 -644 -663 0
644 -660 -663 0
-644 -660 663 0
660 644 663 0
-7 663 0
647 -660 -664 0
660 -647 -664 0
664 -647 -660 0
660 647 664 0
-8 -664 0
589 -665 -666 0
665 -589 -666 0
-589 -665 666 0
589 665 666 0
-4 -666 0
665 -590 -667 0
590 -665 -667 0
667 -665 -590 0
667 665 590 0
-6 667 0
665 -644 -668 0
644 -665 -668 0
-644 -665 668 0
665 644 668 0
-7 668 0
647 -665 -669 0
665 -647 -669 0
669 -647 -665 0
665 647 669 0
-8 -669 0
590 -670 -671 0
670 -590 -671 0
-590 -670 671 0
590 670 671 0
-4 -671 0
-585 670 -672 0
585 -670 -672 0
672 -670 -585 0
672 670 585 0
-6 672 0
670 -644 -673 0
644 -670 -673 0
-644 -670 673 0
670 644 673 0
-7 673 0
647 -670 -674 0
670 -647 -674 0
674 -647 -670 0
670 647 674 0
-8 -674 0
675 -676 -677 0
676 -675 -677 0
-675 -676 677 0
676 675 677 0
-4 -677 0
676 -678 -679 0
678 -676 -679 0
679 -676 -678 0
679 676 678 0
-6 679 0
-675 680 0
-678 680 0
-681 680 0
-682 680 0
-683 680 0
-684 680 0
-685 680 0
-686 680 0
687 0
676 -680 -688 0
-676 680 -688 0
-676 -680 688 0
676 680 688 0
-7 688 0
675 689 0
678 689 0
681 689 0
682 689 0
683 689 0
684 689 0
685 689 0
686 689 0
-690 0
-676 689 -691 0
676 -689 -691 0
691 -689 -676 0
676 689 691 0
-8 -691 0
678 -692 -693 0
692 -678 -693 0
-678 -692 693 0
678 692 693 0
-4 -693 0
692 -681 -694 0
681 -692 -694 0
694 -692 -681 0
694 692 681 0
-6 694 0
-678 695 0
-681 695 0
-682 695 0
-683 695 0
-684 695 0
-685 695 0
-686 695 0
696 0
692 -695 -697 0
-692 695 -697 0
-692 -695 697 0
692 695 697 0
-7 697 0
678 698 0
681 698 0
682 698 0
683 698 0
684 698 0
685 698 0
686 698 0
-699 0
-692 698 -700 0
692 -698 -700 0
700 -698 -692 0
692 698 700 0
-8 -700 0
681 -701 -702 0
701 -681 -702 0
-681 -701 702 0
681 701 702 0
-4 -702 0
701 -682 -703 0
682 -701 -703 0
703 -701 -682 0
703 701 682 0
-6 703 0
-681 704 0
-682 704 0
-683 704 0
-684 704 0
-685 704 0
-686 704 0
705 0
701 -704 -706 0
-701 704 -706 0
-701 -704 706 0
701 704 706 0
-7 706 0
681 707 0
682 707 0
683 707 0
684 707 0
685 707 0
686 707 0
-708 0
-701 707 -709 0
701 -707 -709 0
709 -707 -701 0
701 707 709 0
-8 -709 0
682 -710 -711 0
710 -682 -711 0
-682 -710 711 0
682 710 711 0
-4 -711 0
710 -683 -712 0
683 -710 -712 0
712 -710 -683 0
712 710 683 0
-6 712 0
-682 713 0
-683 713 0
-684 713 0
-685 713 0
-686 713 0
714 0
710 -713 -715 0
-710 713 -715 0
-710 -713 715 0
710 713 715 0
-7 715 0
682 716 0
683 716 0
684 716 0
685 716 0
686 716 0
-717 0
-710 716 -718 0
710 -716 -718 0
718 -716 -710 0
710 716 718 0
-8 -718 0
683 -719 -720 0
719 -683 -720 0
-683 -719 720 0
683 719 720 0
-4 -720 0
719 -684 -721 0
684 -719 -721 0
721 -719 -684 0
721 719 684 0
-6 721 0
-683 722 0
-684 722 0
-685 722 0
-686 722 0
683 684 685 686 -722 0
719 -722 -723 0
-719 722 -723 0
-719 -722 723 0
719 722 723 0
-7 723 0
683 724 0
684 724 0
685 724 0
686 724 0
-725 0
-719 724 -726 0
719 -724 -726 0
726 -724 -719 0
719 724 726 0
-8 -726 0
684 -727 -728 0
727 -684 -728 0
-684 -727 728 0
684 727 728 0
-4 -728 0
727 -685 -729 0
685 -727 -729 0
729 -727 -685 0
729 727 685 0
-6 729 0
727 -722 -730 0
722 -727 -730 0
-722 -727 730 0
727 722 730 0
-7 730 0
724 -727 -731 0
727 -724 -731 0
731 -724 -727 0
727 724 731 0
-8 -731 0
685 -732 -733 0
732 -685 -733 0
-685 -732 733 0
685 732 733 0
-4 -733 0
732 -686 -734 0
686 -732 -734 0
734 -732 -686 0
734 732 686 0
-6 734 0
732 -722 -735 0
722 -732 -735 0
-722 -732 735 0
732 722 735 0
-7 735 0
724 -732 -736 0
732 -724 -736 0
736 -724 -732 0
732 724 736 0
-8 -736 0
686 -737 -738 0
737 -686 -738 0
-686 -737 738 0
686 737 738 0
-4 -738 0
-683 737 -739 0
683 -737 -739 0
739 -737 -683 0
739 737 683 0
-6 739 0
737 -722 -740 0
722 -737 -740 0
-722 -737 740 0
737 722 740 0
-7 740 0
724 -737 -741 0
737 -724 -741 0
741 -724 -737 0
737 724 741 0
-8 -741 0
742 -743 -744 0
743 -742 -744 0
-742 -743 744 0
743 742 744 0
-4 -744 0
743 -745 -746 0
745 -743 -746 0
746 -743 -745 0
746 743 745 0
-6 746 0
-742 747 0
-745 747 0
-748 747 0
-749 747 0
-750 747 0
-751 747 0
-752 747 0
-753 747 0
-754 747 0
755 0
743 -747 -756 0
-743 747 -756 0
-743 -747 756 0
743 747 756 0
-7 756 0
742 757 0
745 757 0
748 757 0
749 757 0
750 757 0
751 757 0
752 757 0
753 757 0
754 757 0
-758 0
-743 757 -759 0
743 -757 -759 0
759 -757 -743 0
743 757 759 0
-8 -759 0
745 -760 -761 0
760 -745 -761 0
-745 -760 761 0
745 760 761 0
-4 -761 0
760 -748 -762 0
748 -760 -762 0
762 -760 -748 0
762 760 748 0
-6 762 0
-745 763 0
-748 763 0
-749 763 0
-750 763 0
-751 763 0
-752 763 0
-753 763 0
-754 763 0
764 0
760 -763 -765 0
-760 763 -765 0
-760 -763 765 0
760 763 765 0
-7 765 0
745 766 0
748 766 0
749 766 0
750 766 0
751 766 0
752 766 0
753 766 0
754 766 0
-767 0
-760 766 -768 0
760 -766 -768 0
768 -766 -760 0
760 766 768 0
-8 -768 0
748 -769 -770 0
769 -748 -770 0
-748 -769 770 0
748 769 770 0
-4 -770 0
769 -749 -771 0
749 -769 -771 0
771 -769 -749 0
771 769 749 0
-6 771 0
-748 772 0
-749 772 0
-750 772 0
-751 772 0
-752 772 0
-753 772 0
-754 772 0
773 0
769 -772 -774 0
-769 772 -774 0
-769 -772 774 0
769 772 774 0
-7 774 0
748 775 0
749 775 0
750 775 0
751 775 0
752 775 0
753 775 0
754 775 0
-776 0
-769 775 -777 0
769 -775 -777 0
777 -775 -769 0
769 775 777 0
-8 -777 0
749 -778 -779 0
778 -749 -779 0
-749 -778 779 0
749 778 779 0
-4 -779 0
778 -750 -780 0
750 -778 -780 0
780 -778 -750 0
780 778 750 0
-6 780 0
-749 781 0
-750 781 0
-751 781 0
-752 781 0
-753 781 0
-754 781 0
782 0
778 -781 -783 0
-778 781 -783 0
-778 -781 783 0
778 781 783 0
-7 783 0
749 784 0
750 784 0
751 784 0
752 784 0
753 784 0
754 784 0
-785 0
-778 784 -786 0
778 -784 -786 0
786 -784 -778 0
778 784 786 0
-8 -786 0
750 -787 -788 0
787 -750 -788 0
-750 -787 788 0
750 787 788 0
-4 -788 0
787 -751 -789 0
751 -787 -789 0
789 -787 -751 0
789 787 751 0
-6 789 0
-750 790 0
-751 790 0
-752 790 0
-753 790 0
-754 790 0
791 0
787 -790 -792 0
-787 790 -792 0
-787 -790 792 0
787 790 792 0
-7 792 0
750 793 0
751 793 0
752 793 0
753 793 0
754 793 0
-794 0
-787 793 -795 0
787 -793 -795 0
795 -793 -787 0
787 793 795 0
-8 -795 0
751 -796 -797 0
796 -751 -797 0
-751 -796 797 0
751 796 797 0
-4 -797 0
796 -752 -798 0
752 -796 -798 0
798 -796 -752 0
798 796 752 0
-6 798 0
796 -790 -799 0
790 -796 -799 0
-790 -796 799 0
796 790 799 0
-7 799 0
793 -796 -800 0
796 -793 -800 0
800 -793 -796 0
796 793 800 0
-8 -800 0
752 -801 -802 0
801 -752 -802 0
-752 -801 802 0
752 801 802 0
-4 -802 0
801 -753 -803 0
753 -801 -803 0
803 -801 -753 0
803 801 753 0
-6 803 0
801 -790 -804 0
790 -801 -804 0
-790 -801 804 0
801 790 804 0
-7 804 0
793 -801 -805 0
801 -793 -805 0
805 -793 -801 0
801 793 805 0
-8 -805 0
753 -806 -807 0
806 -753 -807 0
-753 -806 807 0
753 806 807 0
-4 -807 0
806 -754 -808 0
754 -806 -808 0
808 -806 -754 0
808 806 754 0
-6 808 0
806 -790 -809 0
790 -806 -809 0
-790 -806 809 0
806 790 809 0
-7 809 0
793 -806 -810 0
806 -793 -810 0
810 -793 -806 0
806 793 810 0
-8 -810 0
754 -811 -812 0
811 -754 -812 0
-754 -811 812 0
754 811 812 0
-4 -812 0
-750 811 -813 0
750 -811 -813 0
813 -811 -750 0
813 811 750 0
-6 813 0
811 -790 -814 0
790 -811 -814 0
-790 -811 814 0
811 790 814 0
-7 814 0
793 -811 -815 0
811 -793 -815 0
815 -793 -811 0
811 793 815 0
-8 -815 0
4 6 7 8 0
-4 -6 0
-4 -7 0
-4 -8 0
-6 -7 0
-6 -8 0
-7 -8 0
1 0
9 0
13 0
17 0
21 0
25 0
29 0
33 0
37 0
41 0
-45 0
48 0
51 0
52 0
53 0
-54 0
55 0
56 0
-57 0
119 0
122 0
-125 0
-126 0
-127 0
-128 0
129 0
-130 0
-131 0
132 0
206 0
209 0
-212 0
213 0
214 0
215 0
216 0
217 0
218 0
-219 0
-220 0
-296 0
-299 0
302 0
303 0
304 0
-305 0
306 0
307 0
-308 0
-370 0
-373 0
-376 0
377 0
378 0
379 0
414 0
-417 0
420 0
-421 0
422 0
-423 0
424 0
-425 0
-426 0
-427 0
-428 0
429 0
-514 0
-517 0
-520 0
521 0
522 0
523 0
-524 0
-575 0
-578 0
581 0
-582 0
-583 0
-584 0
-585 0
-586 0
587 0
-588 0
589 0
590 0
675 0
678 0
681 0
-682 0
-683 0
-684 0
685 0
686 0
-742 0
-745 0
748 0
749 0
750 0
-751 0
752 0
753 0
-754 0
2 0
10 0
14 0
18 0
22 0
26 0
30 0
34 0
38 0
42 0
-46 0
-120 0
-207 0
-297 0
-371 0
-415 0
-515 0
-576 0
-676 0
-743 0
